(set-logic UF)
(declare-sort S1 0)
(declare-sort S2 0)
(declare-sort S3 0)
(declare-sort S4 0)
(declare-sort S5 0)
(declare-sort S6 0)
(declare-sort S7 0)
(declare-sort S8 0)
(declare-sort S9 0)
(declare-sort S10 0)
(declare-sort S11 0)
(declare-sort S12 0)
(declare-sort S13 0)
(declare-sort S14 0)
(declare-sort S15 0)
(declare-sort S16 0)
(declare-sort S17 0)
(declare-sort S18 0)
(declare-sort S19 0)
(declare-sort S20 0)
(declare-sort S21 0)
(declare-sort S22 0)
(declare-sort S23 0)
(declare-sort S24 0)
(declare-sort S25 0)
(declare-sort S26 0)
(declare-sort S27 0)
(declare-sort S28 0)
(declare-sort S29 0)
(declare-sort S30 0)
(declare-sort S31 0)
(declare-sort S32 0)
(declare-sort S33 0)
(declare-sort S34 0)
(declare-sort S35 0)
(declare-sort S36 0)
(declare-sort S37 0)
(declare-sort S38 0)
(declare-sort S39 0)
(declare-sort S40 0)
(declare-sort S41 0)
(declare-sort S42 0)
(declare-sort S43 0)
(declare-sort S44 0)
(declare-sort S45 0)
(declare-sort S46 0)
(declare-sort S47 0)
(declare-sort S48 0)
(declare-sort S49 0)
(declare-sort S50 0)
(declare-sort S51 0)
(declare-sort S52 0)
(declare-sort S53 0)
(declare-sort S54 0)
(declare-sort S55 0)
(declare-sort S56 0)
(declare-sort S57 0)
(declare-sort S58 0)
(declare-sort S59 0)
(declare-sort S60 0)
(declare-sort S61 0)
(declare-sort S62 0)
(declare-sort S63 0)
(declare-sort S64 0)
(declare-sort S65 0)
(declare-sort S66 0)
(declare-sort S67 0)
(declare-sort S68 0)
(declare-sort S69 0)
(declare-sort S70 0)
(declare-sort S71 0)
(declare-sort S72 0)
(declare-sort S73 0)
(declare-sort S74 0)
(declare-sort S75 0)
(declare-sort S76 0)
(declare-sort S77 0)
(declare-sort S78 0)
(declare-sort S79 0)
(declare-sort S80 0)
(declare-sort S81 0)
(declare-sort S82 0)
(declare-sort S83 0)
(declare-sort S84 0)
(declare-sort S85 0)
(declare-sort S86 0)
(declare-sort S87 0)
(declare-sort S88 0)
(declare-sort S89 0)
(declare-sort S90 0)
(declare-sort S91 0)
(declare-sort S92 0)
(declare-sort S93 0)
(declare-sort S94 0)
(declare-sort S95 0)
(declare-sort S96 0)
(declare-sort S97 0)
(declare-sort S98 0)
(declare-sort S99 0)
(declare-sort S100 0)
(declare-sort S101 0)
(declare-sort S102 0)
(declare-sort S103 0)
(declare-sort S104 0)
(declare-sort S105 0)
(declare-sort S106 0)
(declare-sort S107 0)
(declare-sort S108 0)
(declare-sort S109 0)
(declare-sort S110 0)
(declare-sort S111 0)
(declare-sort S112 0)
(declare-sort S113 0)
(declare-sort S114 0)
(declare-sort S115 0)
(declare-sort S116 0)
(declare-sort S117 0)
(declare-sort S118 0)
(declare-sort S119 0)
(declare-sort S120 0)
(declare-sort S121 0)
(declare-sort S122 0)
(declare-sort S123 0)
(declare-sort S124 0)
(declare-sort S125 0)
(declare-sort S126 0)
(declare-sort S127 0)
(declare-sort S128 0)
(declare-sort S129 0)
(declare-sort S130 0)
(declare-sort S131 0)
(declare-sort S132 0)
(declare-sort S133 0)
(declare-sort S134 0)
(declare-sort S135 0)
(declare-sort S136 0)
(declare-sort S137 0)
(declare-sort S138 0)
(declare-sort S139 0)
(declare-sort S140 0)
(declare-sort S141 0)
(declare-sort S142 0)
(declare-sort S143 0)
(declare-sort S144 0)
(declare-sort S145 0)
(declare-sort S146 0)
(declare-sort S147 0)
(declare-sort S148 0)
(declare-sort S149 0)
(declare-sort S150 0)
(declare-sort S151 0)
(declare-sort S152 0)
(declare-sort S153 0)
(declare-sort S154 0)
(declare-sort S155 0)
(declare-sort S156 0)
(declare-sort S157 0)
(declare-sort S158 0)
(declare-sort S159 0)
(declare-sort S160 0)
(declare-sort S161 0)
(declare-sort S162 0)
(declare-sort S163 0)
(declare-sort S164 0)
(declare-sort S165 0)
(declare-sort S166 0)
(declare-sort S167 0)
(declare-sort S168 0)
(declare-sort S169 0)
(declare-sort S170 0)
(declare-sort S171 0)
(declare-sort S172 0)
(declare-sort S173 0)
(declare-sort S174 0)
(declare-sort S175 0)
(declare-sort S176 0)
(declare-sort S177 0)
(declare-sort S178 0)
(declare-sort S179 0)
(declare-sort S180 0)
(declare-sort S181 0)
(declare-sort S182 0)
(declare-sort S183 0)
(declare-sort S184 0)
(declare-sort S185 0)
(declare-sort S186 0)
(declare-sort S187 0)
(declare-sort S188 0)
(declare-sort S189 0)
(declare-sort S190 0)
(declare-sort S191 0)
(declare-sort S192 0)
(declare-sort S193 0)
(declare-sort S194 0)
(declare-sort S195 0)
(declare-sort S196 0)
(declare-sort S197 0)
(declare-sort S198 0)
(declare-sort S199 0)
(declare-sort S200 0)
(declare-sort S201 0)
(declare-sort S202 0)
(declare-sort S203 0)
(declare-sort S204 0)
(declare-sort S205 0)
(declare-sort S206 0)
(declare-sort S207 0)
(declare-sort S208 0)
(declare-sort S209 0)
(declare-sort S210 0)
(declare-sort S211 0)
(declare-sort S212 0)
(declare-sort S213 0)
(declare-sort S214 0)
(declare-sort S215 0)
(declare-sort S216 0)
(declare-sort S217 0)
(declare-sort S218 0)
(declare-sort S219 0)
(declare-sort S220 0)
(declare-sort S221 0)
(declare-sort S222 0)
(declare-sort S223 0)
(declare-sort S224 0)
(declare-sort S225 0)
(declare-sort S226 0)
(declare-sort S227 0)
(declare-sort S228 0)
(declare-sort S229 0)
(declare-sort S230 0)
(declare-sort S231 0)
(declare-sort S232 0)
(declare-sort S233 0)
(declare-sort S234 0)
(declare-sort S235 0)
(declare-sort S236 0)
(declare-sort S237 0)
(declare-sort S238 0)
(declare-sort S239 0)
(declare-fun f1 () S1)
(declare-fun f2 () S1)
(declare-fun f3 (S3 S2) S1)
(declare-fun f4 () S3)
(declare-fun f5 () S3)
(declare-fun f6 (S7 S5) S1)
(declare-fun f7 (S8 S2) S7)
(declare-fun f8 (S9 S4) S8)
(declare-fun f9 () S9)
(declare-fun f10 (S10 S5) S4)
(declare-fun f11 (S11 S6) S10)
(declare-fun f12 (S12 S4) S11)
(declare-fun f13 () S12)
(declare-fun f14 () S5)
(declare-fun f15 (S13 S6) S2)
(declare-fun f16 (S14 S2) S13)
(declare-fun f17 (S15 S2) S14)
(declare-fun f18 () S15)
(declare-fun f19 (S16 S2) S2)
(declare-fun f20 () S16)
(declare-fun f21 () S14)
(declare-fun f22 () S6)
(declare-fun f23 (S17 S6) S1)
(declare-fun f24 (S18 S17) S17)
(declare-fun f25 () S18)
(declare-fun f26 (S19 S17) S1)
(declare-fun f27 (S20 S6) S19)
(declare-fun f28 () S20)
(declare-fun f29 (S21 S6) S6)
(declare-fun f30 () S21)
(declare-fun f31 (S24 S23) S23)
(declare-fun f32 (S25 S22) S24)
(declare-fun f33 () S25)
(declare-fun f34 (S26 S23) S24)
(declare-fun f35 () S26)
(declare-fun f36 () S25)
(declare-fun f37 () S23)
(declare-fun f38 (S28 S27) S27)
(declare-fun f39 (S29 S5) S28)
(declare-fun f40 () S29)
(declare-fun f41 (S30 S27) S28)
(declare-fun f42 () S30)
(declare-fun f43 () S29)
(declare-fun f44 () S27)
(declare-fun f45 (S32 S31) S31)
(declare-fun f46 (S33 S23) S32)
(declare-fun f47 () S33)
(declare-fun f48 (S34 S31) S32)
(declare-fun f49 () S34)
(declare-fun f50 () S33)
(declare-fun f51 () S31)
(declare-fun f52 (S36 S35) S35)
(declare-fun f53 (S37 S2) S36)
(declare-fun f54 () S37)
(declare-fun f55 (S38 S35) S36)
(declare-fun f56 () S38)
(declare-fun f57 () S37)
(declare-fun f58 () S35)
(declare-fun f59 (S39 S6) S16)
(declare-fun f60 () S39)
(declare-fun f61 (S40 S4) S3)
(declare-fun f62 () S40)
(declare-fun f63 (S41 S2) S39)
(declare-fun f64 () S41)
(declare-fun f65 (S42 S22) S1)
(declare-fun f66 (S43 S42) S42)
(declare-fun f67 (S44 S42) S43)
(declare-fun f68 () S44)
(declare-fun f69 (S45 S7) S7)
(declare-fun f70 (S46 S7) S45)
(declare-fun f71 () S46)
(declare-fun f72 (S47 S23) S1)
(declare-fun f73 (S48 S47) S47)
(declare-fun f74 (S49 S47) S48)
(declare-fun f75 () S49)
(declare-fun f76 (S50 S3) S3)
(declare-fun f77 (S51 S3) S50)
(declare-fun f78 () S51)
(declare-fun f79 (S52 S42) S48)
(declare-fun f80 () S52)
(declare-fun f81 (S53 S42) S1)
(declare-fun f82 (S54 S22) S53)
(declare-fun f83 () S54)
(declare-fun f84 (S55 S47) S1)
(declare-fun f85 (S56 S23) S55)
(declare-fun f86 () S56)
(declare-fun f87 (S57 S27) S1)
(declare-fun f88 (S58 S57) S57)
(declare-fun f89 (S59 S7) S58)
(declare-fun f90 () S59)
(declare-fun f91 (S60 S7) S1)
(declare-fun f92 (S61 S5) S60)
(declare-fun f93 () S61)
(declare-fun f94 (S62 S57) S1)
(declare-fun f95 (S63 S27) S62)
(declare-fun f96 () S63)
(declare-fun f97 (S64 S31) S1)
(declare-fun f98 (S65 S64) S64)
(declare-fun f99 (S66 S47) S65)
(declare-fun f100 () S66)
(declare-fun f101 (S67 S64) S1)
(declare-fun f102 (S68 S31) S67)
(declare-fun f103 () S68)
(declare-fun f104 (S69 S70) S1)
(declare-fun f105 (S71 S69) S69)
(declare-fun f106 (S72 S57) S71)
(declare-fun f107 () S72)
(declare-fun f108 (S73 S70) S70)
(declare-fun f109 (S74 S27) S73)
(declare-fun f110 () S74)
(declare-fun f111 (S75 S69) S1)
(declare-fun f112 (S76 S70) S75)
(declare-fun f113 () S76)
(declare-fun f114 (S77 S78) S1)
(declare-fun f115 (S79 S77) S77)
(declare-fun f116 (S80 S64) S79)
(declare-fun f117 () S80)
(declare-fun f118 (S81 S78) S78)
(declare-fun f119 (S82 S31) S81)
(declare-fun f120 () S82)
(declare-fun f121 (S83 S77) S1)
(declare-fun f122 (S84 S78) S83)
(declare-fun f123 () S84)
(declare-fun f124 (S86 S87) S1)
(declare-fun f125 (S88 S86) S86)
(declare-fun f126 (S89 S85) S88)
(declare-fun f127 () S89)
(declare-fun f128 (S90 S87) S87)
(declare-fun f129 (S91 S35) S90)
(declare-fun f130 () S91)
(declare-fun f131 (S92 S85) S1)
(declare-fun f132 (S93 S35) S92)
(declare-fun f133 () S93)
(declare-fun f134 (S94 S86) S1)
(declare-fun f135 (S95 S87) S94)
(declare-fun f136 () S95)
(declare-fun f137 (S97 S98) S1)
(declare-fun f138 (S99 S97) S97)
(declare-fun f139 (S100 S96) S99)
(declare-fun f140 () S100)
(declare-fun f141 (S102 S98) S98)
(declare-fun f142 (S103 S101) S102)
(declare-fun f143 () S103)
(declare-fun f144 (S104 S96) S1)
(declare-fun f145 (S105 S101) S104)
(declare-fun f146 () S105)
(declare-fun f147 (S106 S97) S1)
(declare-fun f148 (S107 S98) S106)
(declare-fun f149 () S107)
(declare-fun f150 (S85 S35) S1)
(declare-fun f151 (S108 S85) S85)
(declare-fun f152 (S109 S3) S108)
(declare-fun f153 () S109)
(declare-fun f154 (S110 S3) S1)
(declare-fun f155 (S111 S2) S110)
(declare-fun f156 () S111)
(declare-fun f157 (S96 S101) S1)
(declare-fun f158 (S112 S96) S96)
(declare-fun f159 (S113 S17) S112)
(declare-fun f160 () S113)
(declare-fun f161 (S114 S101) S101)
(declare-fun f162 (S115 S6) S114)
(declare-fun f163 () S115)
(declare-fun f164 (S116 S5) S57)
(declare-fun f165 (S117 S35) S116)
(declare-fun f166 (S118 S2) S117)
(declare-fun f167 (S119 S4) S118)
(declare-fun f168 () S119)
(declare-fun f169 (S120 S35) S57)
(declare-fun f170 (S121 S4) S120)
(declare-fun f171 () S121)
(declare-fun f172 () S16)
(declare-fun f173 () S4)
(declare-fun f174 () S5)
(declare-fun f175 () S13)
(declare-fun f176 () S2)
(declare-fun f177 (S4 S6) S5)
(declare-fun f178 () S2)
(declare-fun f179 () S2)
(declare-fun f180 () S6)
(declare-fun f181 () S2)
(declare-fun f182 () S122)
(declare-fun f183 (S123 S2) S6)
(declare-fun f184 () S123)
(declare-fun f185 () S123)
(declare-fun f186 () S16)
(declare-fun f187 () S6)
(declare-fun f188 (S124 S2) S16)
(declare-fun f189 () S124)
(declare-fun f190 () S35)
(declare-fun f191 () S27)
(declare-fun f192 (S125 S5) S5)
(declare-fun f193 (S126 S5) S125)
(declare-fun f194 () S126)
(declare-fun f195 () S4)
(declare-fun f196 (S127 S27) S125)
(declare-fun f197 (S128 S126) S127)
(declare-fun f198 () S128)
(declare-fun f199 () S5)
(declare-fun f200 (S129 S35) S2)
(declare-fun f201 (S130 S2) S129)
(declare-fun f202 (S131 S124) S130)
(declare-fun f203 () S131)
(declare-fun f204 () S35)
(declare-fun f205 () S6)
(declare-fun f206 () S5)
(declare-fun f207 (S132 S2) S3)
(declare-fun f208 () S132)
(declare-fun f209 () S112)
(declare-fun f210 () S58)
(declare-fun f211 () S108)
(declare-fun f212 () S48)
(declare-fun f213 () S65)
(declare-fun f214 () S18)
(declare-fun f215 (S133 S116) S57)
(declare-fun f216 (S134 S1) S133)
(declare-fun f217 () S134)
(declare-fun f218 (S136 S101) S21)
(declare-fun f219 (S137 S135) S136)
(declare-fun f220 () S137)
(declare-fun f221 (S135 S6) S21)
(declare-fun f222 (S140 S122) S122)
(declare-fun f223 (S141 S139) S140)
(declare-fun f224 (S142 S138) S141)
(declare-fun f225 () S142)
(declare-fun f226 (S143 S139) S139)
(declare-fun f227 (S144 S122) S143)
(declare-fun f228 () S144)
(declare-fun f229 (S138 S122) S140)
(declare-fun f230 (S145 S101) S6)
(declare-fun f231 (S146 S6) S145)
(declare-fun f232 (S147 S135) S146)
(declare-fun f233 () S147)
(declare-fun f234 (S148 S139) S122)
(declare-fun f235 (S149 S122) S148)
(declare-fun f236 (S150 S138) S149)
(declare-fun f237 () S150)
(declare-fun f238 (S151 S3) S85)
(declare-fun f239 () S151)
(declare-fun f240 (S152 S7) S57)
(declare-fun f241 () S152)
(declare-fun f242 (S153 S47) S64)
(declare-fun f243 () S153)
(declare-fun f244 (S154 S42) S47)
(declare-fun f245 () S154)
(declare-fun f246 (S155 S33) S32)
(declare-fun f247 (S156 S31) S155)
(declare-fun f248 () S156)
(declare-fun f249 (S157 S25) S24)
(declare-fun f250 (S158 S23) S157)
(declare-fun f251 () S158)
(declare-fun f252 (S159 S37) S36)
(declare-fun f253 (S160 S35) S159)
(declare-fun f254 () S160)
(declare-fun f255 (S161 S29) S28)
(declare-fun f256 (S162 S27) S161)
(declare-fun f257 () S162)
(declare-fun f258 (S163 S35) S85)
(declare-fun f259 (S164 S132) S163)
(declare-fun f260 () S164)
(declare-fun f261 (S165 S16) S36)
(declare-fun f262 () S165)
(declare-fun f263 (S167 S31) S101)
(declare-fun f264 (S168 S166) S167)
(declare-fun f265 () S168)
(declare-fun f266 (S166 S23) S6)
(declare-fun f267 (S170 S23) S101)
(declare-fun f268 (S171 S169) S170)
(declare-fun f269 () S171)
(declare-fun f270 (S169 S22) S6)
(declare-fun f271 (S172 S35) S101)
(declare-fun f272 (S173 S123) S172)
(declare-fun f273 () S173)
(declare-fun f274 (S175 S27) S101)
(declare-fun f275 (S176 S174) S175)
(declare-fun f276 () S176)
(declare-fun f277 (S174 S5) S6)
(declare-fun f278 (S178 S101) S31)
(declare-fun f279 (S179 S177) S178)
(declare-fun f280 () S179)
(declare-fun f281 (S177 S6) S23)
(declare-fun f282 (S181 S101) S23)
(declare-fun f283 (S182 S180) S181)
(declare-fun f284 () S182)
(declare-fun f285 (S180 S6) S22)
(declare-fun f286 (S183 S101) S35)
(declare-fun f287 (S184 S13) S183)
(declare-fun f288 () S184)
(declare-fun f289 (S185 S101) S27)
(declare-fun f290 (S186 S4) S185)
(declare-fun f291 () S186)
(declare-fun f292 (S188 S101) S96)
(declare-fun f293 (S189 S187) S188)
(declare-fun f294 () S189)
(declare-fun f295 (S187 S6) S17)
(declare-fun f296 (S191 S31) S64)
(declare-fun f297 (S192 S190) S191)
(declare-fun f298 () S192)
(declare-fun f299 (S190 S23) S47)
(declare-fun f300 (S194 S193) S190)
(declare-fun f301 () S194)
(declare-fun f302 (S193 S22) S42)
(declare-fun f303 (S196 S27) S57)
(declare-fun f304 (S197 S195) S196)
(declare-fun f305 () S197)
(declare-fun f306 (S195 S5) S7)
(declare-fun f307 () S15)
(declare-fun f308 (S198 S6) S14)
(declare-fun f309 () S198)
(declare-fun f310 () S4)
(declare-fun f311 () S174)
(declare-fun f312 () S100)
(declare-fun f313 () S99)
(declare-fun f314 () S72)
(declare-fun f315 () S71)
(declare-fun f316 () S89)
(declare-fun f317 () S88)
(declare-fun f318 () S80)
(declare-fun f319 () S79)
(declare-fun f320 () S66)
(declare-fun f321 () S52)
(declare-fun f322 () S109)
(declare-fun f323 () S59)
(declare-fun f324 () S113)
(declare-fun f325 () S174)
(declare-fun f326 (S200 S199) S199)
(declare-fun f327 (S201 S17) S200)
(declare-fun f328 () S201)
(declare-fun f329 (S202 S199) S96)
(declare-fun f330 () S202)
(declare-fun f331 (S204 S203) S203)
(declare-fun f332 (S205 S7) S204)
(declare-fun f333 () S205)
(declare-fun f334 (S206 S203) S57)
(declare-fun f335 () S206)
(declare-fun f336 (S208 S207) S207)
(declare-fun f337 (S209 S3) S208)
(declare-fun f338 () S209)
(declare-fun f339 (S210 S207) S85)
(declare-fun f340 () S210)
(declare-fun f341 (S212 S211) S211)
(declare-fun f342 (S213 S42) S212)
(declare-fun f343 () S213)
(declare-fun f344 (S214 S211) S47)
(declare-fun f345 () S214)
(declare-fun f346 (S216 S215) S215)
(declare-fun f347 (S217 S47) S216)
(declare-fun f348 () S217)
(declare-fun f349 (S218 S215) S64)
(declare-fun f350 () S218)
(declare-fun f351 (S219 S101) S114)
(declare-fun f352 () S219)
(declare-fun f353 (S221 S31) S35)
(declare-fun f354 (S222 S220) S221)
(declare-fun f355 () S222)
(declare-fun f356 (S224 S23) S35)
(declare-fun f357 (S225 S223) S224)
(declare-fun f358 () S225)
(declare-fun f359 (S227 S31) S27)
(declare-fun f360 (S228 S226) S227)
(declare-fun f361 () S228)
(declare-fun f362 (S230 S23) S27)
(declare-fun f363 (S231 S229) S230)
(declare-fun f364 () S231)
(declare-fun f365 () S28)
(declare-fun f366 () S36)
(declare-fun f367 () S32)
(declare-fun f368 () S24)
(declare-fun f369 () S30)
(declare-fun f370 () S38)
(declare-fun f371 () S34)
(declare-fun f372 () S26)
(declare-fun f373 (S232 S17) S27)
(declare-fun f374 (S233 S27) S232)
(declare-fun f375 () S233)
(declare-fun f376 (S234 S17) S35)
(declare-fun f377 (S235 S35) S234)
(declare-fun f378 () S235)
(declare-fun f379 (S236 S17) S31)
(declare-fun f380 (S237 S31) S236)
(declare-fun f381 () S237)
(declare-fun f382 (S238 S17) S23)
(declare-fun f383 (S239 S23) S238)
(declare-fun f384 () S239)
(declare-fun f385 () S29)
(declare-fun f386 () S37)
(declare-fun f387 () S33)
(declare-fun f388 () S25)
(declare-fun f389 () S135)
(declare-fun f390 () S138)
(assert (not (not (= (not (= (f6 (f7 (f8 f9 (f10 (f11 (f12 f13 f173) f22) f174)) (f15 f175 f22)) f174) f1)) (not (= (f6 (f7 (f8 f9 (f10 (f11 (f12 f13 f173) f22) f174)) (f15 f175 f22)) f174) (f3 f5 f176)))))))
(assert (not (not (not (= (f6 (f7 (f8 f9 (f10 (f11 (f12 f13 f173) f22) f174)) (f15 f175 f22)) f174) f1)))))
(assert (not (not (= (f6 (f7 (f8 f9 (f10 (f11 (f12 f13 f173) f22) f174)) (f15 f175 f22)) f174) (f3 f5 f176)))))
(check-sat)
(exit)
